[[55, 18, 24, 49, 23, 56, 16, 63, 33, 73, 43, 41, 42, 64, 22, 62, 28, 61, 74, 21, 48, 47, 69, 36, 71, 60, 70, 20, 37, 5, 15, 57, 13, 54, 52, 27], [29, 45, 4, 30, 2, 68, 75, 6, 51, 17, 76, 26, 67, 34, 46, 8, 7, 35, 19, 53, 14, 59, 11, 66, 65, 38, 10, 31, 58, 72, 39, 9, 12, 40, 3, 44, 32, 50, 25]]